TP2/100835.txt
22
47
1 13 13 1
1 14 5 1
1 16 6 1
1 17 10 1
1 18 7 1
1 19 8 1
1 20 0 1
1 21 7 1
1 22 2 1
2 22 16 1
3 16 6 1
3 18 6 1
3 19 0 1
3 22 3 1
4 16 4 1
4 17 8 1
4 18 8 1
4 19 8 1
4 22 5 1
5 22 7 1
6 16 6 1
6 18 5 1
6 22 12 1
7 22 10 1
8 22 10 1
9 13 13 1
9 14 5 1
9 16 5 1
9 17 10 1
9 18 7 1
9 19 5 1
9 22 10 1
10 16 7 1
10 18 5 1
10 19 6 1
10 22 11 1
11 12 1 1
11 13 15 1
11 14 2 1
11 15 4 1
11 16 6 1
11 17 11 1
11 18 9 1
11 19 9 1
11 20 9 1
11 21 10 1
11 22 0 100
1
1
1
1
1
1
1
1
1
1
100
-1
-1
-1
-1
-1
-1
-1
-1
-1
-1
-100
